p cnf 2304 145
961 0
912 0
1 2 3 4 5 6 7 8 9 10 11 12 13 14 15 16 17 18 19 20 21 22 23 24 25 26 27 28 29 30 31 32 33 34 35 36 37 38 39 40 41 42 43 44 45 46 47 48 0
49 50 51 52 53 54 55 56 57 58 59 60 61 62 63 64 65 66 67 68 69 70 71 72 73 74 75 76 77 78 79 80 81 82 83 84 85 86 87 88 89 90 91 92 93 94 95 96 0
97 98 99 100 101 102 103 104 105 106 107 108 109 110 111 112 113 114 115 116 117 118 119 120 121 122 123 124 125 126 127 128 129 130 131 132 133 134 135 136 137 138 139 140 141 142 143 144 0
145 146 147 148 149 150 151 152 153 154 155 156 157 158 159 160 161 162 163 164 165 166 167 168 169 170 171 172 173 174 175 176 177 178 179 180 181 182 183 184 185 186 187 188 189 190 191 192 0
193 194 195 196 197 198 199 200 201 202 203 204 205 206 207 208 209 210 211 212 213 214 215 216 217 218 219 220 221 222 223 224 225 226 227 228 229 230 231 232 233 234 235 236 237 238 239 240 0
241 242 243 244 245 246 247 248 249 250 251 252 253 254 255 256 257 258 259 260 261 262 263 264 265 266 267 268 269 270 271 272 273 274 275 276 277 278 279 280 281 282 283 284 285 286 287 288 0
289 290 291 292 293 294 295 296 297 298 299 300 301 302 303 304 305 306 307 308 309 310 311 312 313 314 315 316 317 318 319 320 321 322 323 324 325 326 327 328 329 330 331 332 333 334 335 336 0
337 338 339 340 341 342 343 344 345 346 347 348 349 350 351 352 353 354 355 356 357 358 359 360 361 362 363 364 365 366 367 368 369 370 371 372 373 374 375 376 377 378 379 380 381 382 383 384 0
385 386 387 388 389 390 391 392 393 394 395 396 397 398 399 400 401 402 403 404 405 406 407 408 409 410 411 412 413 414 415 416 417 418 419 420 421 422 423 424 425 426 427 428 429 430 431 432 0
433 434 435 436 437 438 439 440 441 442 443 444 445 446 447 448 449 450 451 452 453 454 455 456 457 458 459 460 461 462 463 464 465 466 467 468 469 470 471 472 473 474 475 476 477 478 479 480 0
481 482 483 484 485 486 487 488 489 490 491 492 493 494 495 496 497 498 499 500 501 502 503 504 505 506 507 508 509 510 511 512 513 514 515 516 517 518 519 520 521 522 523 524 525 526 527 528 0
529 530 531 532 533 534 535 536 537 538 539 540 541 542 543 544 545 546 547 548 549 550 551 552 553 554 555 556 557 558 559 560 561 562 563 564 565 566 567 568 569 570 571 572 573 574 575 576 0
577 578 579 580 581 582 583 584 585 586 587 588 589 590 591 592 593 594 595 596 597 598 599 600 601 602 603 604 605 606 607 608 609 610 611 612 613 614 615 616 617 618 619 620 621 622 623 624 0
625 626 627 628 629 630 631 632 633 634 635 636 637 638 639 640 641 642 643 644 645 646 647 648 649 650 651 652 653 654 655 656 657 658 659 660 661 662 663 664 665 666 667 668 669 670 671 672 0
673 674 675 676 677 678 679 680 681 682 683 684 685 686 687 688 689 690 691 692 693 694 695 696 697 698 699 700 701 702 703 704 705 706 707 708 709 710 711 712 713 714 715 716 717 718 719 720 0
721 722 723 724 725 726 727 728 729 730 731 732 733 734 735 736 737 738 739 740 741 742 743 744 745 746 747 748 749 750 751 752 753 754 755 756 757 758 759 760 761 762 763 764 765 766 767 768 0
769 770 771 772 773 774 775 776 777 778 779 780 781 782 783 784 785 786 787 788 789 790 791 792 793 794 795 796 797 798 799 800 801 802 803 804 805 806 807 808 809 810 811 812 813 814 815 816 0
817 818 819 820 821 822 823 824 825 826 827 828 829 830 831 832 833 834 835 836 837 838 839 840 841 842 843 844 845 846 847 848 849 850 851 852 853 854 855 856 857 858 859 860 861 862 863 864 0
865 866 867 868 869 870 871 872 873 874 875 876 877 878 879 880 881 882 883 884 885 886 887 888 889 890 891 892 893 894 895 896 897 898 899 900 901 902 903 904 905 906 907 908 909 910 911 912 0
913 914 915 916 917 918 919 920 921 922 923 924 925 926 927 928 929 930 931 932 933 934 935 936 937 938 939 940 941 942 943 944 945 946 947 948 949 950 951 952 953 954 955 956 957 958 959 960 0
961 962 963 964 965 966 967 968 969 970 971 972 973 974 975 976 977 978 979 980 981 982 983 984 985 986 987 988 989 990 991 992 993 994 995 996 997 998 999 1000 1001 1002 1003 1004 1005 1006 1007 1008 0
1009 1010 1011 1012 1013 1014 1015 1016 1017 1018 1019 1020 1021 1022 1023 1024 1025 1026 1027 1028 1029 1030 1031 1032 1033 1034 1035 1036 1037 1038 1039 1040 1041 1042 1043 1044 1045 1046 1047 1048 1049 1050 1051 1052 1053 1054 1055 1056 0
1057 1058 1059 1060 1061 1062 1063 1064 1065 1066 1067 1068 1069 1070 1071 1072 1073 1074 1075 1076 1077 1078 1079 1080 1081 1082 1083 1084 1085 1086 1087 1088 1089 1090 1091 1092 1093 1094 1095 1096 1097 1098 1099 1100 1101 1102 1103 1104 0
1105 1106 1107 1108 1109 1110 1111 1112 1113 1114 1115 1116 1117 1118 1119 1120 1121 1122 1123 1124 1125 1126 1127 1128 1129 1130 1131 1132 1133 1134 1135 1136 1137 1138 1139 1140 1141 1142 1143 1144 1145 1146 1147 1148 1149 1150 1151 1152 0
1153 1154 1155 1156 1157 1158 1159 1160 1161 1162 1163 1164 1165 1166 1167 1168 1169 1170 1171 1172 1173 1174 1175 1176 1177 1178 1179 1180 1181 1182 1183 1184 1185 1186 1187 1188 1189 1190 1191 1192 1193 1194 1195 1196 1197 1198 1199 1200 0
1201 1202 1203 1204 1205 1206 1207 1208 1209 1210 1211 1212 1213 1214 1215 1216 1217 1218 1219 1220 1221 1222 1223 1224 1225 1226 1227 1228 1229 1230 1231 1232 1233 1234 1235 1236 1237 1238 1239 1240 1241 1242 1243 1244 1245 1246 1247 1248 0
1249 1250 1251 1252 1253 1254 1255 1256 1257 1258 1259 1260 1261 1262 1263 1264 1265 1266 1267 1268 1269 1270 1271 1272 1273 1274 1275 1276 1277 1278 1279 1280 1281 1282 1283 1284 1285 1286 1287 1288 1289 1290 1291 1292 1293 1294 1295 1296 0
1297 1298 1299 1300 1301 1302 1303 1304 1305 1306 1307 1308 1309 1310 1311 1312 1313 1314 1315 1316 1317 1318 1319 1320 1321 1322 1323 1324 1325 1326 1327 1328 1329 1330 1331 1332 1333 1334 1335 1336 1337 1338 1339 1340 1341 1342 1343 1344 0
1345 1346 1347 1348 1349 1350 1351 1352 1353 1354 1355 1356 1357 1358 1359 1360 1361 1362 1363 1364 1365 1366 1367 1368 1369 1370 1371 1372 1373 1374 1375 1376 1377 1378 1379 1380 1381 1382 1383 1384 1385 1386 1387 1388 1389 1390 1391 1392 0
1393 1394 1395 1396 1397 1398 1399 1400 1401 1402 1403 1404 1405 1406 1407 1408 1409 1410 1411 1412 1413 1414 1415 1416 1417 1418 1419 1420 1421 1422 1423 1424 1425 1426 1427 1428 1429 1430 1431 1432 1433 1434 1435 1436 1437 1438 1439 1440 0
1441 1442 1443 1444 1445 1446 1447 1448 1449 1450 1451 1452 1453 1454 1455 1456 1457 1458 1459 1460 1461 1462 1463 1464 1465 1466 1467 1468 1469 1470 1471 1472 1473 1474 1475 1476 1477 1478 1479 1480 1481 1482 1483 1484 1485 1486 1487 1488 0
1489 1490 1491 1492 1493 1494 1495 1496 1497 1498 1499 1500 1501 1502 1503 1504 1505 1506 1507 1508 1509 1510 1511 1512 1513 1514 1515 1516 1517 1518 1519 1520 1521 1522 1523 1524 1525 1526 1527 1528 1529 1530 1531 1532 1533 1534 1535 1536 0
1537 1538 1539 1540 1541 1542 1543 1544 1545 1546 1547 1548 1549 1550 1551 1552 1553 1554 1555 1556 1557 1558 1559 1560 1561 1562 1563 1564 1565 1566 1567 1568 1569 1570 1571 1572 1573 1574 1575 1576 1577 1578 1579 1580 1581 1582 1583 1584 0
1585 1586 1587 1588 1589 1590 1591 1592 1593 1594 1595 1596 1597 1598 1599 1600 1601 1602 1603 1604 1605 1606 1607 1608 1609 1610 1611 1612 1613 1614 1615 1616 1617 1618 1619 1620 1621 1622 1623 1624 1625 1626 1627 1628 1629 1630 1631 1632 0
1633 1634 1635 1636 1637 1638 1639 1640 1641 1642 1643 1644 1645 1646 1647 1648 1649 1650 1651 1652 1653 1654 1655 1656 1657 1658 1659 1660 1661 1662 1663 1664 1665 1666 1667 1668 1669 1670 1671 1672 1673 1674 1675 1676 1677 1678 1679 1680 0
1681 1682 1683 1684 1685 1686 1687 1688 1689 1690 1691 1692 1693 1694 1695 1696 1697 1698 1699 1700 1701 1702 1703 1704 1705 1706 1707 1708 1709 1710 1711 1712 1713 1714 1715 1716 1717 1718 1719 1720 1721 1722 1723 1724 1725 1726 1727 1728 0
1729 1730 1731 1732 1733 1734 1735 1736 1737 1738 1739 1740 1741 1742 1743 1744 1745 1746 1747 1748 1749 1750 1751 1752 1753 1754 1755 1756 1757 1758 1759 1760 1761 1762 1763 1764 1765 1766 1767 1768 1769 1770 1771 1772 1773 1774 1775 1776 0
1777 1778 1779 1780 1781 1782 1783 1784 1785 1786 1787 1788 1789 1790 1791 1792 1793 1794 1795 1796 1797 1798 1799 1800 1801 1802 1803 1804 1805 1806 1807 1808 1809 1810 1811 1812 1813 1814 1815 1816 1817 1818 1819 1820 1821 1822 1823 1824 0
1825 1826 1827 1828 1829 1830 1831 1832 1833 1834 1835 1836 1837 1838 1839 1840 1841 1842 1843 1844 1845 1846 1847 1848 1849 1850 1851 1852 1853 1854 1855 1856 1857 1858 1859 1860 1861 1862 1863 1864 1865 1866 1867 1868 1869 1870 1871 1872 0
1873 1874 1875 1876 1877 1878 1879 1880 1881 1882 1883 1884 1885 1886 1887 1888 1889 1890 1891 1892 1893 1894 1895 1896 1897 1898 1899 1900 1901 1902 1903 1904 1905 1906 1907 1908 1909 1910 1911 1912 1913 1914 1915 1916 1917 1918 1919 1920 0
1921 1922 1923 1924 1925 1926 1927 1928 1929 1930 1931 1932 1933 1934 1935 1936 1937 1938 1939 1940 1941 1942 1943 1944 1945 1946 1947 1948 1949 1950 1951 1952 1953 1954 1955 1956 1957 1958 1959 1960 1961 1962 1963 1964 1965 1966 1967 1968 0
1969 1970 1971 1972 1973 1974 1975 1976 1977 1978 1979 1980 1981 1982 1983 1984 1985 1986 1987 1988 1989 1990 1991 1992 1993 1994 1995 1996 1997 1998 1999 2000 2001 2002 2003 2004 2005 2006 2007 2008 2009 2010 2011 2012 2013 2014 2015 2016 0
2017 2018 2019 2020 2021 2022 2023 2024 2025 2026 2027 2028 2029 2030 2031 2032 2033 2034 2035 2036 2037 2038 2039 2040 2041 2042 2043 2044 2045 2046 2047 2048 2049 2050 2051 2052 2053 2054 2055 2056 2057 2058 2059 2060 2061 2062 2063 2064 0
2065 2066 2067 2068 2069 2070 2071 2072 2073 2074 2075 2076 2077 2078 2079 2080 2081 2082 2083 2084 2085 2086 2087 2088 2089 2090 2091 2092 2093 2094 2095 2096 2097 2098 2099 2100 2101 2102 2103 2104 2105 2106 2107 2108 2109 2110 2111 2112 0
2113 2114 2115 2116 2117 2118 2119 2120 2121 2122 2123 2124 2125 2126 2127 2128 2129 2130 2131 2132 2133 2134 2135 2136 2137 2138 2139 2140 2141 2142 2143 2144 2145 2146 2147 2148 2149 2150 2151 2152 2153 2154 2155 2156 2157 2158 2159 2160 0
2161 2162 2163 2164 2165 2166 2167 2168 2169 2170 2171 2172 2173 2174 2175 2176 2177 2178 2179 2180 2181 2182 2183 2184 2185 2186 2187 2188 2189 2190 2191 2192 2193 2194 2195 2196 2197 2198 2199 2200 2201 2202 2203 2204 2205 2206 2207 2208 0
2209 2210 2211 2212 2213 2214 2215 2216 2217 2218 2219 2220 2221 2222 2223 2224 2225 2226 2227 2228 2229 2230 2231 2232 2233 2234 2235 2236 2237 2238 2239 2240 2241 2242 2243 2244 2245 2246 2247 2248 2249 2250 2251 2252 2253 2254 2255 2256 0
2257 2258 2259 2260 2261 2262 2263 2264 2265 2266 2267 2268 2269 2270 2271 2272 2273 2274 2275 2276 2277 2278 2279 2280 2281 2282 2283 2284 2285 2286 2287 2288 2289 2290 2291 2292 2293 2294 2295 2296 2297 2298 2299 2300 2301 2302 2303 2304 0
1 49 97 145 193 241 289 337 385 433 481 529 577 625 673 721 769 817 865 913 961 1009 1057 1105 1153 1201 1249 1297 1345 1393 1441 1489 1537 1585 1633 1681 1729 1777 1825 1873 1921 1969 2017 2065 2113 2161 2209 2257 0
2 50 98 146 194 242 290 338 386 434 482 530 578 626 674 722 770 818 866 914 962 1010 1058 1106 1154 1202 1250 1298 1346 1394 1442 1490 1538 1586 1634 1682 1730 1778 1826 1874 1922 1970 2018 2066 2114 2162 2210 2258 0
3 51 99 147 195 243 291 339 387 435 483 531 579 627 675 723 771 819 867 915 963 1011 1059 1107 1155 1203 1251 1299 1347 1395 1443 1491 1539 1587 1635 1683 1731 1779 1827 1875 1923 1971 2019 2067 2115 2163 2211 2259 0
4 52 100 148 196 244 292 340 388 436 484 532 580 628 676 724 772 820 868 916 964 1012 1060 1108 1156 1204 1252 1300 1348 1396 1444 1492 1540 1588 1636 1684 1732 1780 1828 1876 1924 1972 2020 2068 2116 2164 2212 2260 0
5 53 101 149 197 245 293 341 389 437 485 533 581 629 677 725 773 821 869 917 965 1013 1061 1109 1157 1205 1253 1301 1349 1397 1445 1493 1541 1589 1637 1685 1733 1781 1829 1877 1925 1973 2021 2069 2117 2165 2213 2261 0
6 54 102 150 198 246 294 342 390 438 486 534 582 630 678 726 774 822 870 918 966 1014 1062 1110 1158 1206 1254 1302 1350 1398 1446 1494 1542 1590 1638 1686 1734 1782 1830 1878 1926 1974 2022 2070 2118 2166 2214 2262 0
7 55 103 151 199 247 295 343 391 439 487 535 583 631 679 727 775 823 871 919 967 1015 1063 1111 1159 1207 1255 1303 1351 1399 1447 1495 1543 1591 1639 1687 1735 1783 1831 1879 1927 1975 2023 2071 2119 2167 2215 2263 0
8 56 104 152 200 248 296 344 392 440 488 536 584 632 680 728 776 824 872 920 968 1016 1064 1112 1160 1208 1256 1304 1352 1400 1448 1496 1544 1592 1640 1688 1736 1784 1832 1880 1928 1976 2024 2072 2120 2168 2216 2264 0
9 57 105 153 201 249 297 345 393 441 489 537 585 633 681 729 777 825 873 921 969 1017 1065 1113 1161 1209 1257 1305 1353 1401 1449 1497 1545 1593 1641 1689 1737 1785 1833 1881 1929 1977 2025 2073 2121 2169 2217 2265 0
10 58 106 154 202 250 298 346 394 442 490 538 586 634 682 730 778 826 874 922 970 1018 1066 1114 1162 1210 1258 1306 1354 1402 1450 1498 1546 1594 1642 1690 1738 1786 1834 1882 1930 1978 2026 2074 2122 2170 2218 2266 0
11 59 107 155 203 251 299 347 395 443 491 539 587 635 683 731 779 827 875 923 971 1019 1067 1115 1163 1211 1259 1307 1355 1403 1451 1499 1547 1595 1643 1691 1739 1787 1835 1883 1931 1979 2027 2075 2123 2171 2219 2267 0
12 60 108 156 204 252 300 348 396 444 492 540 588 636 684 732 780 828 876 924 972 1020 1068 1116 1164 1212 1260 1308 1356 1404 1452 1500 1548 1596 1644 1692 1740 1788 1836 1884 1932 1980 2028 2076 2124 2172 2220 2268 0
13 61 109 157 205 253 301 349 397 445 493 541 589 637 685 733 781 829 877 925 973 1021 1069 1117 1165 1213 1261 1309 1357 1405 1453 1501 1549 1597 1645 1693 1741 1789 1837 1885 1933 1981 2029 2077 2125 2173 2221 2269 0
14 62 110 158 206 254 302 350 398 446 494 542 590 638 686 734 782 830 878 926 974 1022 1070 1118 1166 1214 1262 1310 1358 1406 1454 1502 1550 1598 1646 1694 1742 1790 1838 1886 1934 1982 2030 2078 2126 2174 2222 2270 0
15 63 111 159 207 255 303 351 399 447 495 543 591 639 687 735 783 831 879 927 975 1023 1071 1119 1167 1215 1263 1311 1359 1407 1455 1503 1551 1599 1647 1695 1743 1791 1839 1887 1935 1983 2031 2079 2127 2175 2223 2271 0
16 64 112 160 208 256 304 352 400 448 496 544 592 640 688 736 784 832 880 928 976 1024 1072 1120 1168 1216 1264 1312 1360 1408 1456 1504 1552 1600 1648 1696 1744 1792 1840 1888 1936 1984 2032 2080 2128 2176 2224 2272 0
17 65 113 161 209 257 305 353 401 449 497 545 593 641 689 737 785 833 881 929 977 1025 1073 1121 1169 1217 1265 1313 1361 1409 1457 1505 1553 1601 1649 1697 1745 1793 1841 1889 1937 1985 2033 2081 2129 2177 2225 2273 0
18 66 114 162 210 258 306 354 402 450 498 546 594 642 690 738 786 834 882 930 978 1026 1074 1122 1170 1218 1266 1314 1362 1410 1458 1506 1554 1602 1650 1698 1746 1794 1842 1890 1938 1986 2034 2082 2130 2178 2226 2274 0
19 67 115 163 211 259 307 355 403 451 499 547 595 643 691 739 787 835 883 931 979 1027 1075 1123 1171 1219 1267 1315 1363 1411 1459 1507 1555 1603 1651 1699 1747 1795 1843 1891 1939 1987 2035 2083 2131 2179 2227 2275 0
20 68 116 164 212 260 308 356 404 452 500 548 596 644 692 740 788 836 884 932 980 1028 1076 1124 1172 1220 1268 1316 1364 1412 1460 1508 1556 1604 1652 1700 1748 1796 1844 1892 1940 1988 2036 2084 2132 2180 2228 2276 0
21 69 117 165 213 261 309 357 405 453 501 549 597 645 693 741 789 837 885 933 981 1029 1077 1125 1173 1221 1269 1317 1365 1413 1461 1509 1557 1605 1653 1701 1749 1797 1845 1893 1941 1989 2037 2085 2133 2181 2229 2277 0
22 70 118 166 214 262 310 358 406 454 502 550 598 646 694 742 790 838 886 934 982 1030 1078 1126 1174 1222 1270 1318 1366 1414 1462 1510 1558 1606 1654 1702 1750 1798 1846 1894 1942 1990 2038 2086 2134 2182 2230 2278 0
23 71 119 167 215 263 311 359 407 455 503 551 599 647 695 743 791 839 887 935 983 1031 1079 1127 1175 1223 1271 1319 1367 1415 1463 1511 1559 1607 1655 1703 1751 1799 1847 1895 1943 1991 2039 2087 2135 2183 2231 2279 0
24 72 120 168 216 264 312 360 408 456 504 552 600 648 696 744 792 840 888 936 984 1032 1080 1128 1176 1224 1272 1320 1368 1416 1464 1512 1560 1608 1656 1704 1752 1800 1848 1896 1944 1992 2040 2088 2136 2184 2232 2280 0
25 73 121 169 217 265 313 361 409 457 505 553 601 649 697 745 793 841 889 937 985 1033 1081 1129 1177 1225 1273 1321 1369 1417 1465 1513 1561 1609 1657 1705 1753 1801 1849 1897 1945 1993 2041 2089 2137 2185 2233 2281 0
26 74 122 170 218 266 314 362 410 458 506 554 602 650 698 746 794 842 890 938 986 1034 1082 1130 1178 1226 1274 1322 1370 1418 1466 1514 1562 1610 1658 1706 1754 1802 1850 1898 1946 1994 2042 2090 2138 2186 2234 2282 0
27 75 123 171 219 267 315 363 411 459 507 555 603 651 699 747 795 843 891 939 987 1035 1083 1131 1179 1227 1275 1323 1371 1419 1467 1515 1563 1611 1659 1707 1755 1803 1851 1899 1947 1995 2043 2091 2139 2187 2235 2283 0
28 76 124 172 220 268 316 364 412 460 508 556 604 652 700 748 796 844 892 940 988 1036 1084 1132 1180 1228 1276 1324 1372 1420 1468 1516 1564 1612 1660 1708 1756 1804 1852 1900 1948 1996 2044 2092 2140 2188 2236 2284 0
29 77 125 173 221 269 317 365 413 461 509 557 605 653 701 749 797 845 893 941 989 1037 1085 1133 1181 1229 1277 1325 1373 1421 1469 1517 1565 1613 1661 1709 1757 1805 1853 1901 1949 1997 2045 2093 2141 2189 2237 2285 0
30 78 126 174 222 270 318 366 414 462 510 558 606 654 702 750 798 846 894 942 990 1038 1086 1134 1182 1230 1278 1326 1374 1422 1470 1518 1566 1614 1662 1710 1758 1806 1854 1902 1950 1998 2046 2094 2142 2190 2238 2286 0
31 79 127 175 223 271 319 367 415 463 511 559 607 655 703 751 799 847 895 943 991 1039 1087 1135 1183 1231 1279 1327 1375 1423 1471 1519 1567 1615 1663 1711 1759 1807 1855 1903 1951 1999 2047 2095 2143 2191 2239 2287 0
32 80 128 176 224 272 320 368 416 464 512 560 608 656 704 752 800 848 896 944 992 1040 1088 1136 1184 1232 1280 1328 1376 1424 1472 1520 1568 1616 1664 1712 1760 1808 1856 1904 1952 2000 2048 2096 2144 2192 2240 2288 0
33 81 129 177 225 273 321 369 417 465 513 561 609 657 705 753 801 849 897 945 993 1041 1089 1137 1185 1233 1281 1329 1377 1425 1473 1521 1569 1617 1665 1713 1761 1809 1857 1905 1953 2001 2049 2097 2145 2193 2241 2289 0
34 82 130 178 226 274 322 370 418 466 514 562 610 658 706 754 802 850 898 946 994 1042 1090 1138 1186 1234 1282 1330 1378 1426 1474 1522 1570 1618 1666 1714 1762 1810 1858 1906 1954 2002 2050 2098 2146 2194 2242 2290 0
35 83 131 179 227 275 323 371 419 467 515 563 611 659 707 755 803 851 899 947 995 1043 1091 1139 1187 1235 1283 1331 1379 1427 1475 1523 1571 1619 1667 1715 1763 1811 1859 1907 1955 2003 2051 2099 2147 2195 2243 2291 0
36 84 132 180 228 276 324 372 420 468 516 564 612 660 708 756 804 852 900 948 996 1044 1092 1140 1188 1236 1284 1332 1380 1428 1476 1524 1572 1620 1668 1716 1764 1812 1860 1908 1956 2004 2052 2100 2148 2196 2244 2292 0
37 85 133 181 229 277 325 373 421 469 517 565 613 661 709 757 805 853 901 949 997 1045 1093 1141 1189 1237 1285 1333 1381 1429 1477 1525 1573 1621 1669 1717 1765 1813 1861 1909 1957 2005 2053 2101 2149 2197 2245 2293 0
38 86 134 182 230 278 326 374 422 470 518 566 614 662 710 758 806 854 902 950 998 1046 1094 1142 1190 1238 1286 1334 1382 1430 1478 1526 1574 1622 1670 1718 1766 1814 1862 1910 1958 2006 2054 2102 2150 2198 2246 2294 0
39 87 135 183 231 279 327 375 423 471 519 567 615 663 711 759 807 855 903 951 999 1047 1095 1143 1191 1239 1287 1335 1383 1431 1479 1527 1575 1623 1671 1719 1767 1815 1863 1911 1959 2007 2055 2103 2151 2199 2247 2295 0
40 88 136 184 232 280 328 376 424 472 520 568 616 664 712 760 808 856 904 952 1000 1048 1096 1144 1192 1240 1288 1336 1384 1432 1480 1528 1576 1624 1672 1720 1768 1816 1864 1912 1960 2008 2056 2104 2152 2200 2248 2296 0
41 89 137 185 233 281 329 377 425 473 521 569 617 665 713 761 809 857 905 953 1001 1049 1097 1145 1193 1241 1289 1337 1385 1433 1481 1529 1577 1625 1673 1721 1769 1817 1865 1913 1961 2009 2057 2105 2153 2201 2249 2297 0
42 90 138 186 234 282 330 378 426 474 522 570 618 666 714 762 810 858 906 954 1002 1050 1098 1146 1194 1242 1290 1338 1386 1434 1482 1530 1578 1626 1674 1722 1770 1818 1866 1914 1962 2010 2058 2106 2154 2202 2250 2298 0
43 91 139 187 235 283 331 379 427 475 523 571 619 667 715 763 811 859 907 955 1003 1051 1099 1147 1195 1243 1291 1339 1387 1435 1483 1531 1579 1627 1675 1723 1771 1819 1867 1915 1963 2011 2059 2107 2155 2203 2251 2299 0
44 92 140 188 236 284 332 380 428 476 524 572 620 668 716 764 812 860 908 956 1004 1052 1100 1148 1196 1244 1292 1340 1388 1436 1484 1532 1580 1628 1676 1724 1772 1820 1868 1916 1964 2012 2060 2108 2156 2204 2252 2300 0
45 93 141 189 237 285 333 381 429 477 525 573 621 669 717 765 813 861 909 957 1005 1053 1101 1149 1197 1245 1293 1341 1389 1437 1485 1533 1581 1629 1677 1725 1773 1821 1869 1917 1965 2013 2061 2109 2157 2205 2253 2301 0
46 94 142 190 238 286 334 382 430 478 526 574 622 670 718 766 814 862 910 958 1006 1054 1102 1150 1198 1246 1294 1342 1390 1438 1486 1534 1582 1630 1678 1726 1774 1822 1870 1918 1966 2014 2062 2110 2158 2206 2254 2302 0
47 95 143 191 239 287 335 383 431 479 527 575 623 671 719 767 815 863 911 959 1007 1055 1103 1151 1199 1247 1295 1343 1391 1439 1487 1535 1583 1631 1679 1727 1775 1823 1871 1919 1967 2015 2063 2111 2159 2207 2255 2303 0
48 96 144 192 240 288 336 384 432 480 528 576 624 672 720 768 816 864 912 960 1008 1056 1104 1152 1200 1248 1296 1344 1392 1440 1488 1536 1584 1632 1680 1728 1776 1824 1872 1920 1968 2016 2064 2112 2160 2208 2256 2304 0
-1 1298 1826 1490 0
-50 1203 867 2115 0
-99 2068 2164 1492 0
-148 1253 629 1829 0
-197 1590 2070 2166 0
-246 919 967 727 0
-295 1112 1832 1496 0
-344 777 1017 2265 0
-393 1546 826 1978 0
-442 1211 1739 1067 0
-491 1548 1980 876 0
-540 1645 2077 685 0
-589 1694 1790 734 0
-638 159 1743 1455 0
-687 784 544 1456 0
-736 593 257 2225 0
-785 1362 690 354 0
-834 403 1315 1411 0
-931 1172 260 1028 0
-980 261 2133 1029 0
-1029 934 982 358 0
-1078 455 1415 1607 0
-1127 888 2136 312 0
-1176 1321 937 1417 0
-1225 458 74 1610 0
-1274 171 1755 1899 0
-1323 1180 844 28 0
-1372 797 1997 2285 0
-1421 1182 846 1086 0
-1470 1663 655 703 0
-1519 32 128 320 0
-1568 417 513 1713 0
-1617 1234 226 1090 0
-1666 563 2243 1475 0
-1715 1572 612 2244 0
-1764 469 1285 661 0
-1813 1958 614 1910 0
-1862 39 183 327 0
-1911 2056 1288 1816 0
-1960 2057 1817 2201 0
-2009 426 522 1386 0
-2058 1963 2299 1915 0
-2107 140 572 236 0
-2156 93 1005 1149 0
-2205 1966 142 238 0
-2254 1679 1727 767 0
-2303 2064 1392 384 0
